(set-logic QF_S)
(declare-fun var_0xINPUT_242653 () String)
(assert (and (= (len var_0xINPUT_242653) 0) (= (len var_0xINPUT_242653) 0) (not (= var_0xINPUT_242653 "Example:")) (not (= var_0xINPUT_242653 "YY8CBEMy6Q"))))
(check-sat var_0xINPUT_242653)